<?xml version = "1.0" encoding="UTF-8" standalone="yes"?>
<CPLEXSolution version="1.2">
 <header
   problemName="15:06:55.043529"
   solutionName="incumbent"
   solutionIndex="-1"
   objectiveValue="10639.939999999999"
   solutionTypeValue="3"
   solutionTypeString="primal"
   solutionStatusValue="101"
   solutionStatusString="integer optimal solution"
   solutionMethodString="mip"
   primalFeasible="1"
   dualFeasible="1"
   MIPNodes="0"
   MIPIterations="28"
   writeLevel="1"/>
 <quality
   epInt="1.0000000000000001e-05"
   epRHS="9.9999999999999995e-07"
   maxIntInfeas="0"
   maxPrimalInfeas="0"
   maxX="1"
   maxSlack="1"/>
 <linearConstraints>
  <constraint name="_C1" index="0" slack="0"/>
  <constraint name="_C2" index="1" slack="-1"/>
  <constraint name="_C3" index="2" slack="0"/>
  <constraint name="_C4" index="3" slack="0"/>
  <constraint name="Percent_Scifi" index="4" slack="-0.21089000604144303"/>
  <constraint name="Percent_Read" index="5" slack="0.52379094134318471"/>
 </linearConstraints>
 <variables>
  <variable name="x0" index="0" value="0"/>
  <variable name="x1" index="1" value="0"/>
  <variable name="x10" index="2" value="0"/>
  <variable name="x100" index="3" value="0"/>
  <variable name="x101" index="4" value="0"/>
  <variable name="x102" index="5" value="0"/>
  <variable name="x103" index="6" value="0"/>
  <variable name="x104" index="7" value="0"/>
  <variable name="x105" index="8" value="0"/>
  <variable name="x106" index="9" value="0"/>
  <variable name="x107" index="10" value="0"/>
  <variable name="x108" index="11" value="0"/>
  <variable name="x109" index="12" value="0"/>
  <variable name="x11" index="13" value="0"/>
  <variable name="x110" index="14" value="0"/>
  <variable name="x111" index="15" value="0"/>
  <variable name="x112" index="16" value="0"/>
  <variable name="x113" index="17" value="0"/>
  <variable name="x114" index="18" value="0"/>
  <variable name="x115" index="19" value="0"/>
  <variable name="x116" index="20" value="0"/>
  <variable name="x117" index="21" value="0"/>
  <variable name="x118" index="22" value="0"/>
  <variable name="x119" index="23" value="0"/>
  <variable name="x12" index="24" value="0"/>
  <variable name="x120" index="25" value="0"/>
  <variable name="x121" index="26" value="0"/>
  <variable name="x122" index="27" value="0"/>
  <variable name="x123" index="28" value="0"/>
  <variable name="x124" index="29" value="0"/>
  <variable name="x125" index="30" value="0"/>
  <variable name="x126" index="31" value="0"/>
  <variable name="x127" index="32" value="0"/>
  <variable name="x128" index="33" value="0"/>
  <variable name="x129" index="34" value="0"/>
  <variable name="x13" index="35" value="0"/>
  <variable name="x130" index="36" value="0"/>
  <variable name="x131" index="37" value="0"/>
  <variable name="x132" index="38" value="0"/>
  <variable name="x133" index="39" value="0"/>
  <variable name="x134" index="40" value="0"/>
  <variable name="x135" index="41" value="0"/>
  <variable name="x136" index="42" value="0"/>
  <variable name="x137" index="43" value="0"/>
  <variable name="x138" index="44" value="0"/>
  <variable name="x139" index="45" value="0"/>
  <variable name="x14" index="46" value="0"/>
  <variable name="x140" index="47" value="0"/>
  <variable name="x141" index="48" value="0"/>
  <variable name="x142" index="49" value="0"/>
  <variable name="x143" index="50" value="0"/>
  <variable name="x144" index="51" value="0"/>
  <variable name="x145" index="52" value="0"/>
  <variable name="x146" index="53" value="0"/>
  <variable name="x147" index="54" value="0"/>
  <variable name="x148" index="55" value="0"/>
  <variable name="x149" index="56" value="0"/>
  <variable name="x15" index="57" value="0"/>
  <variable name="x150" index="58" value="0"/>
  <variable name="x151" index="59" value="0"/>
  <variable name="x152" index="60" value="0"/>
  <variable name="x153" index="61" value="0"/>
  <variable name="x154" index="62" value="0"/>
  <variable name="x155" index="63" value="0"/>
  <variable name="x156" index="64" value="0"/>
  <variable name="x157" index="65" value="0"/>
  <variable name="x158" index="66" value="0"/>
  <variable name="x159" index="67" value="0"/>
  <variable name="x16" index="68" value="0"/>
  <variable name="x160" index="69" value="0"/>
  <variable name="x161" index="70" value="0"/>
  <variable name="x162" index="71" value="0"/>
  <variable name="x163" index="72" value="0"/>
  <variable name="x164" index="73" value="0"/>
  <variable name="x165" index="74" value="0"/>
  <variable name="x166" index="75" value="0"/>
  <variable name="x167" index="76" value="0"/>
  <variable name="x168" index="77" value="0"/>
  <variable name="x169" index="78" value="0"/>
  <variable name="x17" index="79" value="0"/>
  <variable name="x170" index="80" value="0"/>
  <variable name="x171" index="81" value="0"/>
  <variable name="x172" index="82" value="0"/>
  <variable name="x173" index="83" value="0"/>
  <variable name="x174" index="84" value="0"/>
  <variable name="x175" index="85" value="0"/>
  <variable name="x176" index="86" value="0"/>
  <variable name="x177" index="87" value="0"/>
  <variable name="x178" index="88" value="0"/>
  <variable name="x179" index="89" value="0"/>
  <variable name="x18" index="90" value="0"/>
  <variable name="x180" index="91" value="0"/>
  <variable name="x181" index="92" value="0"/>
  <variable name="x182" index="93" value="0"/>
  <variable name="x183" index="94" value="0"/>
  <variable name="x184" index="95" value="0"/>
  <variable name="x185" index="96" value="0"/>
  <variable name="x186" index="97" value="0"/>
  <variable name="x187" index="98" value="0"/>
  <variable name="x188" index="99" value="0"/>
  <variable name="x189" index="100" value="0"/>
  <variable name="x19" index="101" value="0"/>
  <variable name="x190" index="102" value="0"/>
  <variable name="x191" index="103" value="0"/>
  <variable name="x192" index="104" value="0"/>
  <variable name="x193" index="105" value="0"/>
  <variable name="x194" index="106" value="0"/>
  <variable name="x195" index="107" value="0"/>
  <variable name="x196" index="108" value="0"/>
  <variable name="x197" index="109" value="0"/>
  <variable name="x198" index="110" value="0"/>
  <variable name="x199" index="111" value="0"/>
  <variable name="x2" index="112" value="0"/>
  <variable name="x20" index="113" value="0"/>
  <variable name="x200" index="114" value="0"/>
  <variable name="x201" index="115" value="0"/>
  <variable name="x202" index="116" value="0"/>
  <variable name="x203" index="117" value="0"/>
  <variable name="x204" index="118" value="0"/>
  <variable name="x205" index="119" value="1"/>
  <variable name="x206" index="120" value="0"/>
  <variable name="x207" index="121" value="0"/>
  <variable name="x208" index="122" value="0"/>
  <variable name="x209" index="123" value="0"/>
  <variable name="x21" index="124" value="0"/>
  <variable name="x210" index="125" value="0"/>
  <variable name="x211" index="126" value="0"/>
  <variable name="x212" index="127" value="0"/>
  <variable name="x213" index="128" value="0"/>
  <variable name="x214" index="129" value="0"/>
  <variable name="x215" index="130" value="0"/>
  <variable name="x216" index="131" value="0"/>
  <variable name="x217" index="132" value="0"/>
  <variable name="x218" index="133" value="0"/>
  <variable name="x219" index="134" value="1"/>
  <variable name="x22" index="135" value="0"/>
  <variable name="x220" index="136" value="0"/>
  <variable name="x221" index="137" value="0"/>
  <variable name="x222" index="138" value="0"/>
  <variable name="x223" index="139" value="0"/>
  <variable name="x224" index="140" value="0"/>
  <variable name="x225" index="141" value="0"/>
  <variable name="x226" index="142" value="0"/>
  <variable name="x227" index="143" value="0"/>
  <variable name="x228" index="144" value="0"/>
  <variable name="x229" index="145" value="0"/>
  <variable name="x23" index="146" value="0"/>
  <variable name="x230" index="147" value="1"/>
  <variable name="x231" index="148" value="0"/>
  <variable name="x232" index="149" value="0"/>
  <variable name="x233" index="150" value="0"/>
  <variable name="x234" index="151" value="1"/>
  <variable name="x235" index="152" value="1"/>
  <variable name="x236" index="153" value="1"/>
  <variable name="x237" index="154" value="1"/>
  <variable name="x238" index="155" value="0"/>
  <variable name="x239" index="156" value="0"/>
  <variable name="x24" index="157" value="0"/>
  <variable name="x240" index="158" value="0"/>
  <variable name="x241" index="159" value="0"/>
  <variable name="x242" index="160" value="0"/>
  <variable name="x243" index="161" value="0"/>
  <variable name="x244" index="162" value="0"/>
  <variable name="x245" index="163" value="0"/>
  <variable name="x246" index="164" value="0"/>
  <variable name="x247" index="165" value="0"/>
  <variable name="x248" index="166" value="0"/>
  <variable name="x249" index="167" value="0"/>
  <variable name="x25" index="168" value="0"/>
  <variable name="x250" index="169" value="0"/>
  <variable name="x251" index="170" value="0"/>
  <variable name="x252" index="171" value="0"/>
  <variable name="x253" index="172" value="0"/>
  <variable name="x254" index="173" value="0"/>
  <variable name="x255" index="174" value="0"/>
  <variable name="x256" index="175" value="0"/>
  <variable name="x257" index="176" value="0"/>
  <variable name="x258" index="177" value="0"/>
  <variable name="x259" index="178" value="0"/>
  <variable name="x26" index="179" value="0"/>
  <variable name="x260" index="180" value="0"/>
  <variable name="x261" index="181" value="0"/>
  <variable name="x262" index="182" value="0"/>
  <variable name="x263" index="183" value="0"/>
  <variable name="x264" index="184" value="0"/>
  <variable name="x265" index="185" value="0"/>
  <variable name="x266" index="186" value="0"/>
  <variable name="x267" index="187" value="0"/>
  <variable name="x268" index="188" value="0"/>
  <variable name="x269" index="189" value="0"/>
  <variable name="x27" index="190" value="0"/>
  <variable name="x270" index="191" value="0"/>
  <variable name="x271" index="192" value="0"/>
  <variable name="x272" index="193" value="0"/>
  <variable name="x273" index="194" value="0"/>
  <variable name="x274" index="195" value="0"/>
  <variable name="x275" index="196" value="0"/>
  <variable name="x276" index="197" value="0"/>
  <variable name="x277" index="198" value="0"/>
  <variable name="x278" index="199" value="0"/>
  <variable name="x279" index="200" value="0"/>
  <variable name="x28" index="201" value="0"/>
  <variable name="x280" index="202" value="0"/>
  <variable name="x281" index="203" value="0"/>
  <variable name="x282" index="204" value="0"/>
  <variable name="x283" index="205" value="0"/>
  <variable name="x284" index="206" value="0"/>
  <variable name="x285" index="207" value="0"/>
  <variable name="x286" index="208" value="0"/>
  <variable name="x287" index="209" value="0"/>
  <variable name="x288" index="210" value="0"/>
  <variable name="x289" index="211" value="0"/>
  <variable name="x29" index="212" value="0"/>
  <variable name="x290" index="213" value="0"/>
  <variable name="x291" index="214" value="0"/>
  <variable name="x292" index="215" value="0"/>
  <variable name="x293" index="216" value="0"/>
  <variable name="x294" index="217" value="0"/>
  <variable name="x295" index="218" value="0"/>
  <variable name="x296" index="219" value="0"/>
  <variable name="x297" index="220" value="0"/>
  <variable name="x298" index="221" value="0"/>
  <variable name="x299" index="222" value="0"/>
  <variable name="x3" index="223" value="0"/>
  <variable name="x30" index="224" value="0"/>
  <variable name="x300" index="225" value="0"/>
  <variable name="x301" index="226" value="0"/>
  <variable name="x302" index="227" value="0"/>
  <variable name="x303" index="228" value="0"/>
  <variable name="x304" index="229" value="0"/>
  <variable name="x305" index="230" value="0"/>
  <variable name="x306" index="231" value="0"/>
  <variable name="x307" index="232" value="0"/>
  <variable name="x308" index="233" value="0"/>
  <variable name="x309" index="234" value="0"/>
  <variable name="x31" index="235" value="0"/>
  <variable name="x310" index="236" value="0"/>
  <variable name="x311" index="237" value="0"/>
  <variable name="x312" index="238" value="0"/>
  <variable name="x313" index="239" value="0"/>
  <variable name="x314" index="240" value="0"/>
  <variable name="x315" index="241" value="0"/>
  <variable name="x316" index="242" value="0"/>
  <variable name="x317" index="243" value="0"/>
  <variable name="x318" index="244" value="0"/>
  <variable name="x319" index="245" value="0"/>
  <variable name="x32" index="246" value="0"/>
  <variable name="x320" index="247" value="0"/>
  <variable name="x321" index="248" value="0"/>
  <variable name="x322" index="249" value="0"/>
  <variable name="x323" index="250" value="0"/>
  <variable name="x324" index="251" value="0"/>
  <variable name="x325" index="252" value="0"/>
  <variable name="x326" index="253" value="0"/>
  <variable name="x327" index="254" value="0"/>
  <variable name="x328" index="255" value="0"/>
  <variable name="x329" index="256" value="0"/>
  <variable name="x33" index="257" value="0"/>
  <variable name="x330" index="258" value="0"/>
  <variable name="x331" index="259" value="0"/>
  <variable name="x332" index="260" value="0"/>
  <variable name="x333" index="261" value="0"/>
  <variable name="x334" index="262" value="0"/>
  <variable name="x335" index="263" value="0"/>
  <variable name="x336" index="264" value="0"/>
  <variable name="x337" index="265" value="0"/>
  <variable name="x338" index="266" value="0"/>
  <variable name="x339" index="267" value="0"/>
  <variable name="x34" index="268" value="0"/>
  <variable name="x340" index="269" value="0"/>
  <variable name="x341" index="270" value="0"/>
  <variable name="x342" index="271" value="0"/>
  <variable name="x343" index="272" value="0"/>
  <variable name="x344" index="273" value="0"/>
  <variable name="x345" index="274" value="0"/>
  <variable name="x346" index="275" value="0"/>
  <variable name="x347" index="276" value="0"/>
  <variable name="x348" index="277" value="0"/>
  <variable name="x349" index="278" value="0"/>
  <variable name="x35" index="279" value="0"/>
  <variable name="x350" index="280" value="0"/>
  <variable name="x351" index="281" value="0"/>
  <variable name="x352" index="282" value="0"/>
  <variable name="x353" index="283" value="0"/>
  <variable name="x354" index="284" value="0"/>
  <variable name="x355" index="285" value="0"/>
  <variable name="x356" index="286" value="0"/>
  <variable name="x357" index="287" value="0"/>
  <variable name="x358" index="288" value="0"/>
  <variable name="x359" index="289" value="0"/>
  <variable name="x36" index="290" value="0"/>
  <variable name="x360" index="291" value="0"/>
  <variable name="x361" index="292" value="0"/>
  <variable name="x362" index="293" value="0"/>
  <variable name="x363" index="294" value="0"/>
  <variable name="x364" index="295" value="0"/>
  <variable name="x365" index="296" value="0"/>
  <variable name="x366" index="297" value="0"/>
  <variable name="x367" index="298" value="0"/>
  <variable name="x368" index="299" value="0"/>
  <variable name="x369" index="300" value="0"/>
  <variable name="x37" index="301" value="0"/>
  <variable name="x370" index="302" value="0"/>
  <variable name="x371" index="303" value="0"/>
  <variable name="x372" index="304" value="0"/>
  <variable name="x373" index="305" value="0"/>
  <variable name="x374" index="306" value="0"/>
  <variable name="x375" index="307" value="0"/>
  <variable name="x376" index="308" value="0"/>
  <variable name="x377" index="309" value="0"/>
  <variable name="x378" index="310" value="0"/>
  <variable name="x379" index="311" value="0"/>
  <variable name="x38" index="312" value="0"/>
  <variable name="x380" index="313" value="0"/>
  <variable name="x381" index="314" value="0"/>
  <variable name="x382" index="315" value="0"/>
  <variable name="x383" index="316" value="0"/>
  <variable name="x384" index="317" value="0"/>
  <variable name="x385" index="318" value="0"/>
  <variable name="x386" index="319" value="0"/>
  <variable name="x387" index="320" value="0"/>
  <variable name="x388" index="321" value="0"/>
  <variable name="x389" index="322" value="0"/>
  <variable name="x39" index="323" value="0"/>
  <variable name="x390" index="324" value="0"/>
  <variable name="x391" index="325" value="0"/>
  <variable name="x392" index="326" value="0"/>
  <variable name="x393" index="327" value="0"/>
  <variable name="x394" index="328" value="0"/>
  <variable name="x395" index="329" value="0"/>
  <variable name="x396" index="330" value="0"/>
  <variable name="x397" index="331" value="1"/>
  <variable name="x398" index="332" value="0"/>
  <variable name="x399" index="333" value="0"/>
  <variable name="x4" index="334" value="0"/>
  <variable name="x40" index="335" value="0"/>
  <variable name="x400" index="336" value="0"/>
  <variable name="x401" index="337" value="0"/>
  <variable name="x402" index="338" value="0"/>
  <variable name="x403" index="339" value="0"/>
  <variable name="x404" index="340" value="0"/>
  <variable name="x405" index="341" value="0"/>
  <variable name="x406" index="342" value="0"/>
  <variable name="x407" index="343" value="0"/>
  <variable name="x408" index="344" value="0"/>
  <variable name="x409" index="345" value="0"/>
  <variable name="x41" index="346" value="0"/>
  <variable name="x410" index="347" value="0"/>
  <variable name="x411" index="348" value="0"/>
  <variable name="x412" index="349" value="0"/>
  <variable name="x413" index="350" value="0"/>
  <variable name="x414" index="351" value="0"/>
  <variable name="x415" index="352" value="0"/>
  <variable name="x416" index="353" value="0"/>
  <variable name="x417" index="354" value="0"/>
  <variable name="x418" index="355" value="0"/>
  <variable name="x419" index="356" value="0"/>
  <variable name="x42" index="357" value="0"/>
  <variable name="x420" index="358" value="0"/>
  <variable name="x421" index="359" value="0"/>
  <variable name="x422" index="360" value="0"/>
  <variable name="x423" index="361" value="0"/>
  <variable name="x424" index="362" value="0"/>
  <variable name="x425" index="363" value="0"/>
  <variable name="x426" index="364" value="0"/>
  <variable name="x427" index="365" value="0"/>
  <variable name="x428" index="366" value="0"/>
  <variable name="x429" index="367" value="0"/>
  <variable name="x43" index="368" value="0"/>
  <variable name="x430" index="369" value="0"/>
  <variable name="x431" index="370" value="0"/>
  <variable name="x44" index="371" value="0"/>
  <variable name="x45" index="372" value="0"/>
  <variable name="x46" index="373" value="0"/>
  <variable name="x47" index="374" value="0"/>
  <variable name="x48" index="375" value="0"/>
  <variable name="x49" index="376" value="0"/>
  <variable name="x5" index="377" value="0"/>
  <variable name="x50" index="378" value="0"/>
  <variable name="x51" index="379" value="0"/>
  <variable name="x52" index="380" value="0"/>
  <variable name="x53" index="381" value="0"/>
  <variable name="x54" index="382" value="0"/>
  <variable name="x55" index="383" value="0"/>
  <variable name="x56" index="384" value="0"/>
  <variable name="x57" index="385" value="0"/>
  <variable name="x58" index="386" value="0"/>
  <variable name="x59" index="387" value="0"/>
  <variable name="x6" index="388" value="0"/>
  <variable name="x60" index="389" value="0"/>
  <variable name="x61" index="390" value="0"/>
  <variable name="x62" index="391" value="0"/>
  <variable name="x63" index="392" value="0"/>
  <variable name="x64" index="393" value="0"/>
  <variable name="x65" index="394" value="0"/>
  <variable name="x66" index="395" value="0"/>
  <variable name="x67" index="396" value="0"/>
  <variable name="x68" index="397" value="0"/>
  <variable name="x69" index="398" value="0"/>
  <variable name="x7" index="399" value="0"/>
  <variable name="x70" index="400" value="0"/>
  <variable name="x71" index="401" value="0"/>
  <variable name="x72" index="402" value="0"/>
  <variable name="x73" index="403" value="0"/>
  <variable name="x74" index="404" value="0"/>
  <variable name="x75" index="405" value="0"/>
  <variable name="x76" index="406" value="0"/>
  <variable name="x77" index="407" value="0"/>
  <variable name="x78" index="408" value="0"/>
  <variable name="x79" index="409" value="0"/>
  <variable name="x8" index="410" value="0"/>
  <variable name="x80" index="411" value="0"/>
  <variable name="x81" index="412" value="0"/>
  <variable name="x82" index="413" value="0"/>
  <variable name="x83" index="414" value="0"/>
  <variable name="x84" index="415" value="0"/>
  <variable name="x85" index="416" value="0"/>
  <variable name="x86" index="417" value="0"/>
  <variable name="x87" index="418" value="0"/>
  <variable name="x88" index="419" value="0"/>
  <variable name="x89" index="420" value="0"/>
  <variable name="x9" index="421" value="0"/>
  <variable name="x90" index="422" value="0"/>
  <variable name="x91" index="423" value="0"/>
  <variable name="x92" index="424" value="0"/>
  <variable name="x93" index="425" value="0"/>
  <variable name="x94" index="426" value="0"/>
  <variable name="x95" index="427" value="0"/>
  <variable name="x96" index="428" value="0"/>
  <variable name="x97" index="429" value="0"/>
  <variable name="x98" index="430" value="0"/>
  <variable name="x99" index="431" value="0"/>
 </variables>
</CPLEXSolution>
